decision_x29=[0,2];
decision_x30=[0,2];
decision_x31=[0,2];
decision_x32=[0,2];
decision_x33=[0,2];
decision_x34=[0,2];
decision_x35=[0,2];
decision_x1=[0,2];
decision_x2=[0,2];
decision_x3=[0,2];
decision_x4=[0,2];
decision_x5=[0,2];
decision_x6=[0,2];
decision_x7=[0,2];
decision_x8=[0,2];
decision_x9=[0,2];
decision_x10=[0,2];
decision_x11=[0,2];
decision_x12=[0,2];
decision_x13=[0,2];
decision_x14=[0,2];
decision_x15=[0,2];
decision_x16=[0,2];
decision_x17=[0,2];
decision_x18=[0,2];
decision_x19=[0,2];
decision_x20=[0,2];
decision_x21=[0,2];
decision_x22=[0,2];
decision_x23=[0,2];
decision_x24=[0,2];
decision_x25=[0,2];
decision_x26=[0,2];
decision_x27=[0,2];
decision_x28=[0,2];
random_y1=[0,2];
random_y2=[0,2];
random_y3=[0,2];
random_y4=[0,2];
random_y5=[0,2];
random_y6=[0,2];
random_y7=[0,2];
constraint_x2_x1=[
0,0,2.4|
0,1,8.5|
0,2,8.5|
1,0,6.6|
1,1,2.7|
1,2,9.5|
2,0,0.63|
2,1,4|
2,2,5|
];
constraint_x3_x1=[
0,0,5.3|
0,1,5.5|
0,2,9.6|
1,0,2.1|
1,1,1.9|
1,2,6.5|
2,0,3.7|
2,1,4.5|
2,2,4.4|
];
constraint_x4_x1=[
0,0,6.8|
0,1,9.7|
0,2,3.4|
1,0,7.5|
1,1,9.3|
1,2,2.1|
2,0,1.7|
2,1,8.6|
2,2,0.59|
];
constraint_x5_x2=[
0,0,9.1|
0,1,3.6|
0,2,4.5|
1,0,7.4|
1,1,1.5|
1,2,6.7|
2,0,6.6|
2,1,4.5|
2,2,8.8|
];
constraint_x5_x3=[
0,0,0.41|
0,1,3.1|
0,2,1.4|
1,0,3.2|
1,1,2.8|
1,2,9.3|
2,0,3.7|
2,1,3.5|
2,2,2.5|
];
constraint_x5_x4=[
0,0,4.5|
0,1,6.3|
0,2,7.4|
1,0,1.4|
1,1,4.3|
1,2,2.1|
2,0,8.9|
2,1,6.4|
2,2,1.2|
];
constraint_x6_x1=[
0,0,8.1|
0,1,3.9|
0,2,7.1|
1,0,7.7|
1,1,3.2|
1,2,4.4|
2,0,9.5|
2,1,4.4|
2,2,9.7|
];
constraint_x6_x3=[
0,0,4.6|
0,1,9.1|
0,2,9.8|
1,0,2.5|
1,1,0.72|
1,2,4.4|
2,0,1.1|
2,1,9.9|
2,2,4.6|
];
constraint_x7_x5=[
0,0,0.89|
0,1,7.6|
0,2,4.3|
1,0,2.6|
1,1,5.9|
1,2,6.4|
2,0,3.5|
2,1,2.2|
2,2,7|
];
constraint_x7_x6=[
0,0,3.6|
0,1,6.9|
0,2,3.5|
1,0,2.6|
1,1,1.3|
1,2,2.2|
2,0,9.6|
2,1,8.7|
2,2,4.9|
];
constraint_x8_x2=[
0,0,0.58|
0,1,9.1|
0,2,8.2|
1,0,7.9|
1,1,2.1|
1,2,1.9|
2,0,7.2|
2,1,5|
2,2,0.33|
];
constraint_x8_x3=[
0,0,8.3|
0,1,3.9|
0,2,6.7|
1,0,3.6|
1,1,4.2|
1,2,0.063|
2,0,2.2|
2,1,3.6|
2,2,8.9|
];
constraint_x8_x4=[
0,0,7.7|
0,1,9.8|
0,2,3.8|
1,0,8.1|
1,1,3.3|
1,2,9.3|
2,0,0.22|
2,1,9.5|
2,2,4.3|
];
constraint_x8_x5=[
0,0,1.3|
0,1,2.4|
0,2,9.1|
1,0,3.7|
1,1,6.3|
1,2,5.4|
2,0,1.8|
2,1,8.9|
2,2,6.6|
];
constraint_x9_x2=[
0,0,6.1|
0,1,7.6|
0,2,9.3|
1,0,4.6|
1,1,6.1|
1,2,7|
2,0,6.3|
2,1,0.23|
2,2,2.6|
];
constraint_x9_x3=[
0,0,7.6|
0,1,2.7|
0,2,0.52|
1,0,9.2|
1,1,6.2|
1,2,0.98|
2,0,2.6|
2,1,7.7|
2,2,6.3|
];
constraint_x9_x4=[
0,0,8.1|
0,1,7.4|
0,2,6.8|
1,0,8.4|
1,1,7.4|
1,2,9.8|
2,0,2.8|
2,1,9.2|
2,2,5.9|
];
constraint_x9_x6=[
0,0,0.67|
0,1,5.6|
0,2,2.7|
1,0,6.3|
1,1,0.79|
1,2,1.9|
2,0,7.3|
2,1,2.3|
2,2,9|
];
constraint_x9_x8=[
0,0,7.5|
0,1,3.2|
0,2,8.1|
1,0,9.7|
1,1,4.9|
1,2,0.034|
2,0,3.4|
2,1,8.4|
2,2,1.9|
];
constraint_x10_x1=[
0,0,1.5|
0,1,7.8|
0,2,8.3|
1,0,1.9|
1,1,1.6|
1,2,4.5|
2,0,8|
2,1,1.1|
2,2,8.4|
];
constraint_x10_x2=[
0,0,0.83|
0,1,9.9|
0,2,1|
1,0,7.4|
1,1,6.6|
1,2,3|
2,0,9.5|
2,1,4.8|
2,2,7.7|
];
constraint_x10_x9=[
0,0,8.5|
0,1,3.3|
0,2,1.2|
1,0,8.8|
1,1,3.9|
1,2,2.8|
2,0,0.43|
2,1,6.7|
2,2,6.1|
];
constraint_x11_x2=[
0,0,0.63|
0,1,0.79|
0,2,4.3|
1,0,2.8|
1,1,9.9|
1,2,6.5|
2,0,7.7|
2,1,6.2|
2,2,9.4|
];
constraint_x11_x3=[
0,0,9.7|
0,1,9.2|
0,2,5.1|
1,0,7.3|
1,1,6.2|
1,2,0.0055|
2,0,8.3|
2,1,4.6|
2,2,2.3|
];
constraint_x11_x5=[
0,0,4.3|
0,1,5.1|
0,2,2|
1,0,6.3|
1,1,2.5|
1,2,7.2|
2,0,4.5|
2,1,1.8|
2,2,4.6|
];
constraint_x11_x6=[
0,0,3|
0,1,5.2|
0,2,1.7|
1,0,4.9|
1,1,7.6|
1,2,0.33|
2,0,9.3|
2,1,7|
2,2,3.8|
];
constraint_x11_x7=[
0,0,7.5|
0,1,6|
0,2,6.1|
1,0,7.6|
1,1,4.6|
1,2,2.2|
2,0,6.4|
2,1,0.54|
2,2,0.31|
];
constraint_x11_x8=[
0,0,1.7|
0,1,3.9|
0,2,6.5|
1,0,4.7|
1,1,9.9|
1,2,4.5|
2,0,6.2|
2,1,2.6|
2,2,1.3|
];
constraint_x12_x2=[
0,0,3.4|
0,1,0.77|
0,2,0.32|
1,0,6.1|
1,1,7.1|
1,2,7|
2,0,6.4|
2,1,4.6|
2,2,4.5|
];
constraint_x12_x6=[
0,0,7.3|
0,1,2|
0,2,5.2|
1,0,5.8|
1,1,3.8|
1,2,9|
2,0,2.9|
2,1,8.8|
2,2,9.4|
];
constraint_x12_x9=[
0,0,1.9|
0,1,7.9|
0,2,3.9|
1,0,9.4|
1,1,4.9|
1,2,8.5|
2,0,2.9|
2,1,4.8|
2,2,3.1|
];
constraint_x13_x3=[
0,0,3.7|
0,1,6.2|
0,2,2.8|
1,0,4|
1,1,2.8|
1,2,8.6|
2,0,2.9|
2,1,4.4|
2,2,1.1|
];
constraint_x13_x4=[
0,0,8.8|
0,1,5.4|
0,2,9.6|
1,0,2|
1,1,5.6|
1,2,8.9|
2,0,6.5|
2,1,5|
2,2,6.5|
];
constraint_x13_x5=[
0,0,4|
0,1,6|
0,2,6.6|
1,0,7.9|
1,1,4.1|
1,2,4.7|
2,0,8.8|
2,1,0.073|
2,2,2.4|
];
constraint_x13_x7=[
0,0,5.1|
0,1,0.92|
0,2,7.5|
1,0,8.1|
1,1,0.24|
1,2,3.5|
2,0,0.88|
2,1,7.2|
2,2,0.58|
];
constraint_x13_x8=[
0,0,8.3|
0,1,0.63|
0,2,8|
1,0,2.9|
1,1,3.8|
1,2,9|
2,0,7.5|
2,1,8|
2,2,2.2|
];
constraint_x13_x12=[
0,0,0.23|
0,1,4|
0,2,4|
1,0,8.7|
1,1,9.8|
1,2,0.92|
2,0,5.1|
2,1,1.7|
2,2,5.2|
];
constraint_x14_x2=[
0,0,2.1|
0,1,4|
0,2,0.95|
1,0,8.5|
1,1,4.2|
1,2,0.31|
2,0,3.8|
2,1,9.1|
2,2,2.9|
];
constraint_x14_x5=[
0,0,9.3|
0,1,2.5|
0,2,3.2|
1,0,8.3|
1,1,4|
1,2,9.6|
2,0,7.6|
2,1,9.3|
2,2,7.1|
];
constraint_x14_x6=[
0,0,1.4|
0,1,6.6|
0,2,7.9|
1,0,8.2|
1,1,9.9|
1,2,0.61|
2,0,3.7|
2,1,0.063|
2,2,9.6|
];
constraint_x14_x7=[
0,0,1.7|
0,1,4.2|
0,2,0.074|
1,0,9.2|
1,1,2.3|
1,2,6.7|
2,0,3.8|
2,1,9.2|
2,2,7.3|
];
constraint_x14_x9=[
0,0,4.7|
0,1,2.8|
0,2,3.7|
1,0,6.1|
1,1,8.7|
1,2,1.9|
2,0,2.6|
2,1,1.9|
2,2,7.6|
];
constraint_x14_x10=[
0,0,0.024|
0,1,8.7|
0,2,3.6|
1,0,6.9|
1,1,8.5|
1,2,8.1|
2,0,4.9|
2,1,9.9|
2,2,2.5|
];
constraint_x14_x11=[
0,0,5.9|
0,1,7.6|
0,2,3.5|
1,0,0.31|
1,1,8.9|
1,2,8.6|
2,0,6.2|
2,1,9.2|
2,2,4.7|
];
constraint_x14_x13=[
0,0,0.63|
0,1,7.4|
0,2,9.1|
1,0,6.3|
1,1,7.1|
1,2,0.36|
2,0,6.9|
2,1,8.1|
2,2,1|
];
constraint_x15_x1=[
0,0,8.2|
0,1,8.4|
0,2,1.6|
1,0,5.4|
1,1,8.4|
1,2,7.7|
2,0,5.1|
2,1,0.9|
2,2,6.8|
];
constraint_x15_x2=[
0,0,4.3|
0,1,1.2|
0,2,6.4|
1,0,5.1|
1,1,4.6|
1,2,7.9|
2,0,5.5|
2,1,6.8|
2,2,8.1|
];
constraint_x15_x6=[
0,0,9.6|
0,1,0.93|
0,2,7.9|
1,0,1.3|
1,1,9.8|
1,2,8.8|
2,0,6.9|
2,1,2|
2,2,8.1|
];
constraint_x15_x7=[
0,0,7.8|
0,1,8.2|
0,2,3.9|
1,0,6.7|
1,1,4.7|
1,2,7.7|
2,0,4.5|
2,1,6|
2,2,5.1|
];
constraint_x15_x12=[
0,0,6.8|
0,1,1.5|
0,2,6.6|
1,0,0.73|
1,1,0.4|
1,2,2.5|
2,0,6.2|
2,1,6.1|
2,2,1.4|
];
constraint_x15_x14=[
0,0,1.3|
0,1,1|
0,2,9.6|
1,0,6|
1,1,3.9|
1,2,2.3|
2,0,4.8|
2,1,6.2|
2,2,8.9|
];
constraint_x16_x1=[
0,0,10|
0,1,1.1|
0,2,9.2|
1,0,5.3|
1,1,3.4|
1,2,7.4|
2,0,9.8|
2,1,9.4|
2,2,2|
];
constraint_x16_x3=[
0,0,0.77|
0,1,8.1|
0,2,0.47|
1,0,1.4|
1,1,9.3|
1,2,0.26|
2,0,8.7|
2,1,2.9|
2,2,6.1|
];
constraint_x16_x5=[
0,0,2.7|
0,1,2.6|
0,2,3.9|
1,0,9.5|
1,1,8|
1,2,9.6|
2,0,8.2|
2,1,2.4|
2,2,1.1|
];
constraint_x16_x8=[
0,0,9.7|
0,1,6.6|
0,2,6.4|
1,0,2.3|
1,1,8.3|
1,2,4|
2,0,6.7|
2,1,4.6|
2,2,8.2|
];
constraint_x16_x14=[
0,0,0.044|
0,1,9.9|
0,2,8|
1,0,5.6|
1,1,7.5|
1,2,8.6|
2,0,0.55|
2,1,8|
2,2,2.4|
];
constraint_x17_x1=[
0,0,6|
0,1,6.2|
0,2,1.9|
1,0,7.7|
1,1,1.1|
1,2,3.2|
2,0,8.3|
2,1,0.8|
2,2,5.5|
];
constraint_x17_x2=[
0,0,6.4|
0,1,4.8|
0,2,1.8|
1,0,3.1|
1,1,3.5|
1,2,4|
2,0,4|
2,1,0.46|
2,2,9.7|
];
constraint_x17_x3=[
0,0,5.8|
0,1,7|
0,2,5.3|
1,0,9|
1,1,6|
1,2,8.4|
2,0,5.2|
2,1,8.8|
2,2,3.1|
];
constraint_x17_x6=[
0,0,0.19|
0,1,2.7|
0,2,1.2|
1,0,6.1|
1,1,4.9|
1,2,3.1|
2,0,0.54|
2,1,8.5|
2,2,2.6|
];
constraint_x17_x7=[
0,0,3.7|
0,1,1.1|
0,2,1.8|
1,0,2|
1,1,0.38|
1,2,3.6|
2,0,8.4|
2,1,2.2|
2,2,6.8|
];
constraint_x17_x12=[
0,0,0.97|
0,1,1.4|
0,2,4.9|
1,0,5.8|
1,1,2.7|
1,2,10|
2,0,6.7|
2,1,0.071|
2,2,9.6|
];
constraint_x17_x13=[
0,0,0.3|
0,1,5.2|
0,2,9.9|
1,0,2.1|
1,1,2.8|
1,2,8.2|
2,0,5.6|
2,1,0.16|
2,2,0.7|
];
constraint_x17_x14=[
0,0,3.3|
0,1,9.7|
0,2,5.6|
1,0,1.1|
1,1,3.9|
1,2,8.1|
2,0,4.9|
2,1,5|
2,2,6.7|
];
constraint_x17_x15=[
0,0,8.9|
0,1,8.7|
0,2,8.9|
1,0,6.6|
1,1,8.3|
1,2,8.6|
2,0,7.2|
2,1,4.1|
2,2,4.9|
];
constraint_x18_x2=[
0,0,10|
0,1,8.2|
0,2,0.12|
1,0,3.9|
1,1,6.4|
1,2,1.5|
2,0,1.5|
2,1,1.9|
2,2,0.37|
];
constraint_x18_x3=[
0,0,2.1|
0,1,4.2|
0,2,6.7|
1,0,0.29|
1,1,7.9|
1,2,3.2|
2,0,1|
2,1,8.5|
2,2,8.2|
];
constraint_x18_x5=[
0,0,7.3|
0,1,1.8|
0,2,0.19|
1,0,6.5|
1,1,3|
1,2,7.7|
2,0,1.9|
2,1,3.1|
2,2,1.2|
];
constraint_x18_x6=[
0,0,8.4|
0,1,7.7|
0,2,9|
1,0,7.7|
1,1,9.4|
1,2,1.6|
2,0,6.4|
2,1,0.59|
2,2,0.55|
];
constraint_x18_x7=[
0,0,6.8|
0,1,2.6|
0,2,9.8|
1,0,2.3|
1,1,8.8|
1,2,2|
2,0,8.5|
2,1,6.9|
2,2,7.4|
];
constraint_x18_x8=[
0,0,4.5|
0,1,0.23|
0,2,8.9|
1,0,4.9|
1,1,1.4|
1,2,5.3|
2,0,8.6|
2,1,6|
2,2,3.4|
];
constraint_x18_x12=[
0,0,2.4|
0,1,8.2|
0,2,6.5|
1,0,8|
1,1,8.9|
1,2,5.9|
2,0,7.9|
2,1,3|
2,2,4.8|
];
constraint_x18_x14=[
0,0,7.3|
0,1,9.8|
0,2,5|
1,0,7.6|
1,1,1.5|
1,2,1.7|
2,0,0.33|
2,1,7.9|
2,2,9.6|
];
constraint_x18_x15=[
0,0,6.3|
0,1,0.55|
0,2,9.1|
1,0,5.6|
1,1,2.9|
1,2,4.1|
2,0,1.1|
2,1,7.3|
2,2,1.6|
];
constraint_x18_x17=[
0,0,5.7|
0,1,6.8|
0,2,6.7|
1,0,0.27|
1,1,2.5|
1,2,9.7|
2,0,5.6|
2,1,3.3|
2,2,4.7|
];
constraint_x19_x1=[
0,0,2.7|
0,1,5.5|
0,2,9.1|
1,0,8|
1,1,7.2|
1,2,0.35|
2,0,9.8|
2,1,7.3|
2,2,9.5|
];
constraint_x19_x6=[
0,0,3.8|
0,1,8.9|
0,2,6.6|
1,0,6.1|
1,1,2.9|
1,2,7.1|
2,0,1.5|
2,1,3.5|
2,2,0.29|
];
constraint_x19_x9=[
0,0,4.8|
0,1,9.9|
0,2,1.8|
1,0,4|
1,1,3.4|
1,2,5.5|
2,0,6.3|
2,1,7.4|
2,2,9.6|
];
constraint_x19_x10=[
0,0,0.52|
0,1,1.5|
0,2,7.9|
1,0,6.9|
1,1,0.8|
1,2,9|
2,0,5|
2,1,8.8|
2,2,0.58|
];
constraint_x19_x13=[
0,0,8.9|
0,1,9.9|
0,2,6.8|
1,0,6.4|
1,1,8.8|
1,2,3.7|
2,0,7.1|
2,1,1.8|
2,2,0.15|
];
constraint_x19_x15=[
0,0,1.6|
0,1,2.1|
0,2,5.6|
1,0,4|
1,1,1.8|
1,2,5|
2,0,6.7|
2,1,2.4|
2,2,7.7|
];
constraint_x19_x16=[
0,0,9.9|
0,1,6.7|
0,2,3.7|
1,0,2.3|
1,1,8.2|
1,2,5.9|
2,0,7.9|
2,1,0.2|
2,2,6.3|
];
constraint_x20_x2=[
0,0,3.8|
0,1,7|
0,2,9.3|
1,0,1.8|
1,1,9.3|
1,2,1.1|
2,0,3.4|
2,1,9|
2,2,9.2|
];
constraint_x20_x3=[
0,0,0.46|
0,1,1.2|
0,2,9.3|
1,0,3.5|
1,1,6.9|
1,2,3.2|
2,0,3.3|
2,1,1.1|
2,2,0.49|
];
constraint_x20_x4=[
0,0,5.7|
0,1,2.3|
0,2,6|
1,0,8|
1,1,4.3|
1,2,9.9|
2,0,3.6|
2,1,1|
2,2,9.3|
];
constraint_x20_x7=[
0,0,8.7|
0,1,3.4|
0,2,3|
1,0,8.6|
1,1,7.5|
1,2,7.3|
2,0,1.4|
2,1,7.6|
2,2,9|
];
constraint_x20_x13=[
0,0,3.6|
0,1,4.2|
0,2,1.8|
1,0,1.4|
1,1,8.7|
1,2,4.1|
2,0,9|
2,1,6.3|
2,2,2.1|
];
constraint_x20_x15=[
0,0,3.9|
0,1,8.7|
0,2,6.6|
1,0,3.4|
1,1,7.7|
1,2,1.6|
2,0,8.5|
2,1,7.7|
2,2,8.7|
];
constraint_x20_x16=[
0,0,0.99|
0,1,3|
0,2,8.8|
1,0,3.5|
1,1,1.9|
1,2,0.52|
2,0,6.7|
2,1,7.3|
2,2,2.2|
];
constraint_x20_x17=[
0,0,6.4|
0,1,6.3|
0,2,2.4|
1,0,1.9|
1,1,0.74|
1,2,4|
2,0,3.9|
2,1,8.4|
2,2,2.3|
];
constraint_x21_x6=[
0,0,2.2|
0,1,6.4|
0,2,3.3|
1,0,1.8|
1,1,2.3|
1,2,6.1|
2,0,1.5|
2,1,4.4|
2,2,8.7|
];
constraint_x21_x11=[
0,0,8|
0,1,4.1|
0,2,5.2|
1,0,7.5|
1,1,7|
1,2,1.7|
2,0,8.8|
2,1,8.7|
2,2,9.2|
];
constraint_x21_x12=[
0,0,7.5|
0,1,7.9|
0,2,9.1|
1,0,4.9|
1,1,8.3|
1,2,3.6|
2,0,2.9|
2,1,5.3|
2,2,6.1|
];
constraint_x21_x13=[
0,0,4|
0,1,4|
0,2,0.25|
1,0,7.8|
1,1,9.7|
1,2,1.9|
2,0,1.9|
2,1,9.6|
2,2,4.3|
];
constraint_x21_x14=[
0,0,7.6|
0,1,7.9|
0,2,6.8|
1,0,9.6|
1,1,0.96|
1,2,8.1|
2,0,1.9|
2,1,8.8|
2,2,7.8|
];
constraint_x21_x17=[
0,0,9.6|
0,1,9|
0,2,6.3|
1,0,2.5|
1,1,6|
1,2,2.7|
2,0,3.2|
2,1,9.2|
2,2,7.4|
];
constraint_x22_x3=[
0,0,5.1|
0,1,3|
0,2,3.1|
1,0,9.8|
1,1,7.1|
1,2,1.9|
2,0,0.2|
2,1,1.6|
2,2,2|
];
constraint_x22_x5=[
0,0,9.9|
0,1,2|
0,2,4|
1,0,8.5|
1,1,6.2|
1,2,2.4|
2,0,1.6|
2,1,3.9|
2,2,2.8|
];
constraint_x22_x8=[
0,0,6.7|
0,1,5.6|
0,2,4.1|
1,0,8.5|
1,1,2.9|
1,2,4.2|
2,0,2.2|
2,1,6.7|
2,2,1.1|
];
constraint_x22_x9=[
0,0,6.9|
0,1,4.3|
0,2,2.5|
1,0,1.3|
1,1,0.13|
1,2,9.9|
2,0,4.4|
2,1,4.5|
2,2,3.1|
];
constraint_x22_x10=[
0,0,0.26|
0,1,8.4|
0,2,3.9|
1,0,4.7|
1,1,1.8|
1,2,3.7|
2,0,2.9|
2,1,7.2|
2,2,3.7|
];
constraint_x22_x12=[
0,0,1.7|
0,1,9.1|
0,2,0.47|
1,0,6.7|
1,1,5.7|
1,2,4|
2,0,8.8|
2,1,8.9|
2,2,0.66|
];
constraint_x22_x14=[
0,0,3.7|
0,1,9.8|
0,2,3.6|
1,0,7.9|
1,1,8.2|
1,2,9.6|
2,0,5.4|
2,1,6.7|
2,2,2|
];
constraint_x22_x17=[
0,0,0.82|
0,1,8.2|
0,2,9.9|
1,0,6.1|
1,1,9.9|
1,2,6.4|
2,0,4.6|
2,1,2.6|
2,2,4.4|
];
constraint_x22_x18=[
0,0,9.9|
0,1,4.3|
0,2,4.8|
1,0,7.4|
1,1,3.9|
1,2,0.0015|
2,0,8.6|
2,1,8.3|
2,2,1.8|
];
constraint_x22_x19=[
0,0,2.1|
0,1,2.1|
0,2,6.4|
1,0,6.4|
1,1,4.1|
1,2,9.4|
2,0,6.7|
2,1,4.7|
2,2,1.8|
];
constraint_x22_x20=[
0,0,5.7|
0,1,9.8|
0,2,3.6|
1,0,2.7|
1,1,9.8|
1,2,1.8|
2,0,9|
2,1,2.7|
2,2,4.3|
];
constraint_x22_x21=[
0,0,4|
0,1,0.82|
0,2,7.4|
1,0,5.3|
1,1,10|
1,2,2.4|
2,0,9.3|
2,1,6.9|
2,2,1.2|
];
constraint_x23_x2=[
0,0,2.8|
0,1,4|
0,2,5.4|
1,0,3.6|
1,1,1.4|
1,2,7.1|
2,0,4.4|
2,1,2.2|
2,2,1.4|
];
constraint_x23_x3=[
0,0,3.5|
0,1,5.5|
0,2,1.7|
1,0,5.8|
1,1,1.5|
1,2,2.9|
2,0,6.2|
2,1,4.1|
2,2,9.5|
];
constraint_x23_x4=[
0,0,9.8|
0,1,9|
0,2,2.3|
1,0,2.8|
1,1,4.4|
1,2,9.4|
2,0,3.3|
2,1,3.7|
2,2,6.9|
];
constraint_x23_x5=[
0,0,8.4|
0,1,2.9|
0,2,4.2|
1,0,2.5|
1,1,1.2|
1,2,1.9|
2,0,0.67|
2,1,1.6|
2,2,8.2|
];
constraint_x23_x6=[
0,0,3.4|
0,1,4.4|
0,2,7.1|
1,0,7.4|
1,1,5.4|
1,2,1.3|
2,0,9.2|
2,1,6.7|
2,2,6.3|
];
constraint_x23_x7=[
0,0,5.1|
0,1,1.7|
0,2,4.4|
1,0,4.3|
1,1,9.9|
1,2,4.2|
2,0,6.5|
2,1,9|
2,2,0.86|
];
constraint_x23_x8=[
0,0,0.49|
0,1,5.9|
0,2,2.8|
1,0,9.8|
1,1,4.4|
1,2,2.7|
2,0,5.6|
2,1,8.4|
2,2,1.5|
];
constraint_x23_x9=[
0,0,7.5|
0,1,1.3|
0,2,1.8|
1,0,8.4|
1,1,8.7|
1,2,5.8|
2,0,4.5|
2,1,8.7|
2,2,3.5|
];
constraint_x23_x10=[
0,0,6.8|
0,1,1.2|
0,2,4|
1,0,6.9|
1,1,1|
1,2,4.4|
2,0,5.7|
2,1,3.5|
2,2,4.3|
];
constraint_x23_x11=[
0,0,7|
0,1,8.8|
0,2,0.47|
1,0,6.5|
1,1,1.6|
1,2,8.4|
2,0,0.18|
2,1,2.1|
2,2,2.1|
];
constraint_x23_x13=[
0,0,3.8|
0,1,6.6|
0,2,8.7|
1,0,9.3|
1,1,9.3|
1,2,7.8|
2,0,2|
2,1,6.9|
2,2,9.6|
];
constraint_x23_x16=[
0,0,0.73|
0,1,1.2|
0,2,0.76|
1,0,0.53|
1,1,2.8|
1,2,3.8|
2,0,0.41|
2,1,7.7|
2,2,2.3|
];
constraint_x23_x18=[
0,0,5.8|
0,1,5.3|
0,2,7.4|
1,0,4.4|
1,1,2.5|
1,2,8.9|
2,0,4.6|
2,1,4.5|
2,2,7.7|
];
constraint_x23_x19=[
0,0,1.4|
0,1,8.9|
0,2,8|
1,0,4.4|
1,1,1.5|
1,2,5.9|
2,0,5.1|
2,1,6.3|
2,2,3.1|
];
constraint_x23_x21=[
0,0,9.6|
0,1,0.37|
0,2,8.3|
1,0,8.7|
1,1,9|
1,2,5.6|
2,0,4.3|
2,1,4.4|
2,2,4.3|
];
constraint_x24_x1=[
0,0,0.52|
0,1,9.4|
0,2,5.3|
1,0,7.6|
1,1,9.2|
1,2,2.4|
2,0,2.5|
2,1,6.7|
2,2,2.1|
];
constraint_x24_x2=[
0,0,7.6|
0,1,2.4|
0,2,9.4|
1,0,9|
1,1,7.6|
1,2,0.76|
2,0,4.7|
2,1,3.7|
2,2,7|
];
constraint_x24_x4=[
0,0,8.7|
0,1,8.9|
0,2,2.5|
1,0,8.4|
1,1,5|
1,2,3.2|
2,0,8.8|
2,1,5|
2,2,9|
];
constraint_x24_x5=[
0,0,2.7|
0,1,2.3|
0,2,6.9|
1,0,5.4|
1,1,9.3|
1,2,3.8|
2,0,1.3|
2,1,5.9|
2,2,3|
];
constraint_x24_x6=[
0,0,2.9|
0,1,2.1|
0,2,8.4|
1,0,2|
1,1,5.8|
1,2,8.2|
2,0,3.3|
2,1,1.7|
2,2,7.2|
];
constraint_x24_x7=[
0,0,3.9|
0,1,2.1|
0,2,3.6|
1,0,6.4|
1,1,2|
1,2,3.6|
2,0,9.5|
2,1,7.1|
2,2,9.3|
];
constraint_x24_x8=[
0,0,0.86|
0,1,3.6|
0,2,7.3|
1,0,9|
1,1,2.1|
1,2,0.98|
2,0,4.9|
2,1,4.2|
2,2,9.6|
];
constraint_x24_x10=[
0,0,2|
0,1,8.9|
0,2,2.1|
1,0,4.7|
1,1,2.4|
1,2,8.9|
2,0,0.028|
2,1,4.9|
2,2,7|
];
constraint_x24_x11=[
0,0,2.5|
0,1,7.9|
0,2,5.2|
1,0,2.7|
1,1,0.53|
1,2,3.4|
2,0,2.4|
2,1,8.1|
2,2,6.8|
];
constraint_x24_x15=[
0,0,7.3|
0,1,1.2|
0,2,1.9|
1,0,2.8|
1,1,5.2|
1,2,2.1|
2,0,1.1|
2,1,3.5|
2,2,3.8|
];
constraint_x24_x17=[
0,0,7.2|
0,1,3.6|
0,2,9.9|
1,0,8.3|
1,1,5.4|
1,2,6.4|
2,0,3.3|
2,1,4.4|
2,2,8.8|
];
constraint_x24_x22=[
0,0,2.5|
0,1,6.5|
0,2,3.2|
1,0,9.5|
1,1,2.2|
1,2,5.5|
2,0,5.8|
2,1,2|
2,2,0.71|
];
constraint_x25_x1=[
0,0,6.8|
0,1,2.8|
0,2,1.9|
1,0,2.1|
1,1,2.3|
1,2,7|
2,0,4.8|
2,1,3.6|
2,2,9.6|
];
constraint_x25_x2=[
0,0,9.3|
0,1,4.9|
0,2,5.6|
1,0,6.5|
1,1,4.7|
1,2,6.8|
2,0,4|
2,1,3.2|
2,2,1.7|
];
constraint_x25_x3=[
0,0,2.5|
0,1,3.7|
0,2,6.6|
1,0,4.8|
1,1,9.7|
1,2,4.1|
2,0,0.51|
2,1,9.7|
2,2,6.5|
];
constraint_x25_x4=[
0,0,7.5|
0,1,7|
0,2,7.5|
1,0,0.87|
1,1,4.7|
1,2,1.4|
2,0,3.2|
2,1,4.8|
2,2,3.7|
];
constraint_x25_x7=[
0,0,6.3|
0,1,0.22|
0,2,6|
1,0,8.9|
1,1,5.3|
1,2,4.4|
2,0,8.6|
2,1,9.9|
2,2,8.2|
];
constraint_x25_x8=[
0,0,0.89|
0,1,6.5|
0,2,6.9|
1,0,7.4|
1,1,5.4|
1,2,1.3|
2,0,0.76|
2,1,1.1|
2,2,9.8|
];
constraint_x25_x9=[
0,0,3.3|
0,1,3.9|
0,2,1.7|
1,0,1.7|
1,1,1.2|
1,2,8.4|
2,0,0.53|
2,1,4.9|
2,2,0.88|
];
constraint_x25_x10=[
0,0,2.5|
0,1,7|
0,2,8.8|
1,0,3|
1,1,4|
1,2,2.2|
2,0,8.8|
2,1,6.3|
2,2,7.8|
];
constraint_x25_x12=[
0,0,7.2|
0,1,9|
0,2,4.6|
1,0,7.6|
1,1,7.4|
1,2,0.21|
2,0,9.2|
2,1,3.1|
2,2,1.9|
];
constraint_x25_x14=[
0,0,5|
0,1,4.9|
0,2,6.1|
1,0,5.2|
1,1,3.9|
1,2,2.1|
2,0,6.6|
2,1,5.9|
2,2,5.5|
];
constraint_x25_x16=[
0,0,2.5|
0,1,5.4|
0,2,7.3|
1,0,4.1|
1,1,4.9|
1,2,2.7|
2,0,7.3|
2,1,1.2|
2,2,8.7|
];
constraint_x25_x17=[
0,0,4.9|
0,1,0.77|
0,2,3.5|
1,0,3.7|
1,1,4.6|
1,2,6.9|
2,0,0.22|
2,1,0.8|
2,2,5.2|
];
constraint_x25_x18=[
0,0,0.32|
0,1,2.7|
0,2,2.7|
1,0,4.2|
1,1,2.9|
1,2,2.6|
2,0,7.2|
2,1,4.5|
2,2,8.5|
];
constraint_x25_x19=[
0,0,0.98|
0,1,6.1|
0,2,3.5|
1,0,0.53|
1,1,9.6|
1,2,8.7|
2,0,1.2|
2,1,7.1|
2,2,0.18|
];
constraint_x25_x22=[
0,0,5|
0,1,8.3|
0,2,2.6|
1,0,2.1|
1,1,1.3|
1,2,2.1|
2,0,9.3|
2,1,4.4|
2,2,10|
];
constraint_x25_x24=[
0,0,8.8|
0,1,3.8|
0,2,2.9|
1,0,2.5|
1,1,8.1|
1,2,4.8|
2,0,8|
2,1,7.4|
2,2,4|
];
constraint_x26_x2=[
0,0,9.8|
0,1,8.1|
0,2,7.3|
1,0,1.4|
1,1,1.8|
1,2,0.74|
2,0,2.7|
2,1,4.1|
2,2,0.7|
];
constraint_x26_x4=[
0,0,9.9|
0,1,6.4|
0,2,8.6|
1,0,8.8|
1,1,2.5|
1,2,2|
2,0,8.4|
2,1,8.1|
2,2,2.8|
];
constraint_x26_x5=[
0,0,4.4|
0,1,6|
0,2,9.5|
1,0,3.2|
1,1,4.9|
1,2,4.3|
2,0,7.2|
2,1,2.8|
2,2,2.8|
];
constraint_x26_x7=[
0,0,8.3|
0,1,0.33|
0,2,5.2|
1,0,0.14|
1,1,1.7|
1,2,1.9|
2,0,4|
2,1,3.2|
2,2,3.2|
];
constraint_x26_x10=[
0,0,9|
0,1,3.6|
0,2,6.9|
1,0,6|
1,1,4|
1,2,1.7|
2,0,0.75|
2,1,9|
2,2,8.5|
];
constraint_x26_x11=[
0,0,2.5|
0,1,7.7|
0,2,1.1|
1,0,5.1|
1,1,5.6|
1,2,2.2|
2,0,7.5|
2,1,4|
2,2,3.9|
];
constraint_x26_x13=[
0,0,8.1|
0,1,3.2|
0,2,1.7|
1,0,0.049|
1,1,1.6|
1,2,9.1|
2,0,2.4|
2,1,4.1|
2,2,2.4|
];
constraint_x26_x15=[
0,0,2|
0,1,1.2|
0,2,4.1|
1,0,7.8|
1,1,1|
1,2,0.84|
2,0,4.9|
2,1,4.7|
2,2,9.6|
];
constraint_x26_x22=[
0,0,3.6|
0,1,6.6|
0,2,4.1|
1,0,0.1|
1,1,6.5|
1,2,8.5|
2,0,6.5|
2,1,9.5|
2,2,7.8|
];
constraint_x26_x24=[
0,0,0.53|
0,1,8.2|
0,2,3.3|
1,0,4.6|
1,1,5.6|
1,2,7.2|
2,0,1.8|
2,1,1.2|
2,2,8.5|
];
constraint_x26_x25=[
0,0,4.9|
0,1,5.1|
0,2,6.4|
1,0,9.3|
1,1,3.8|
1,2,10|
2,0,9.9|
2,1,9|
2,2,4.5|
];
constraint_x27_x1=[
0,0,3.1|
0,1,9.7|
0,2,9.1|
1,0,5.1|
1,1,2.4|
1,2,5.1|
2,0,0.92|
2,1,9.7|
2,2,3.1|
];
constraint_x27_x3=[
0,0,7.7|
0,1,5.8|
0,2,9.2|
1,0,0.48|
1,1,1.4|
1,2,0.38|
2,0,1.2|
2,1,2.5|
2,2,6.3|
];
constraint_x27_x4=[
0,0,6.7|
0,1,2.4|
0,2,0.26|
1,0,6.5|
1,1,5.1|
1,2,0.14|
2,0,4.9|
2,1,7.5|
2,2,8.1|
];
constraint_x27_x7=[
0,0,0.56|
0,1,3.6|
0,2,3.5|
1,0,9.4|
1,1,1.3|
1,2,2.6|
2,0,2.8|
2,1,4.1|
2,2,2.3|
];
constraint_x27_x8=[
0,0,9.6|
0,1,7.5|
0,2,7.9|
1,0,9.3|
1,1,8.9|
1,2,5.8|
2,0,4.8|
2,1,1.5|
2,2,1|
];
constraint_x27_x9=[
0,0,5.6|
0,1,5.1|
0,2,0.96|
1,0,0.85|
1,1,10|
1,2,5.7|
2,0,7.6|
2,1,2.2|
2,2,5.8|
];
constraint_x27_x10=[
0,0,8.5|
0,1,3.7|
0,2,2.2|
1,0,6.7|
1,1,3.2|
1,2,7.6|
2,0,1.8|
2,1,4.1|
2,2,3|
];
constraint_x27_x11=[
0,0,0.34|
0,1,5.3|
0,2,6.6|
1,0,1.9|
1,1,7.3|
1,2,3.3|
2,0,8.3|
2,1,2|
2,2,8.1|
];
constraint_x27_x15=[
0,0,5.4|
0,1,6.5|
0,2,6.9|
1,0,1.8|
1,1,7.5|
1,2,1.6|
2,0,4.8|
2,1,9.4|
2,2,3.2|
];
constraint_x27_x16=[
0,0,5.9|
0,1,9.2|
0,2,1.8|
1,0,9.3|
1,1,9.5|
1,2,3.3|
2,0,9.7|
2,1,5.2|
2,2,7.6|
];
constraint_x27_x17=[
0,0,4.2|
0,1,8.4|
0,2,5.3|
1,0,8.6|
1,1,9.1|
1,2,5.2|
2,0,1.3|
2,1,6|
2,2,7.2|
];
constraint_x27_x18=[
0,0,6.7|
0,1,4.2|
0,2,9.1|
1,0,0.77|
1,1,3.7|
1,2,0.7|
2,0,8.9|
2,1,5.2|
2,2,0.97|
];
constraint_x27_x20=[
0,0,5.4|
0,1,1.3|
0,2,2.9|
1,0,6.4|
1,1,6.4|
1,2,3.9|
2,0,0.2|
2,1,1.7|
2,2,9.6|
];
constraint_x27_x22=[
0,0,6.4|
0,1,5|
0,2,4.7|
1,0,7.4|
1,1,4.4|
1,2,6.5|
2,0,8.2|
2,1,0.24|
2,2,1|
];
constraint_x27_x24=[
0,0,1.2|
0,1,2.3|
0,2,4.7|
1,0,4.5|
1,1,0.44|
1,2,9.2|
2,0,6.3|
2,1,2.1|
2,2,4.3|
];
constraint_x27_x25=[
0,0,7.9|
0,1,9.3|
0,2,4.7|
1,0,9.5|
1,1,7.8|
1,2,6.9|
2,0,5.9|
2,1,3.1|
2,2,4.5|
];
constraint_x27_x26=[
0,0,6.8|
0,1,6.1|
0,2,6.1|
1,0,1.1|
1,1,0.17|
1,2,6|
2,0,9.5|
2,1,7.6|
2,2,6|
];
constraint_x28_x2=[
0,0,2.4|
0,1,2.6|
0,2,1.7|
1,0,3.1|
1,1,3.2|
1,2,5.3|
2,0,2|
2,1,6|
2,2,9.6|
];
constraint_x28_x5=[
0,0,7.2|
0,1,2.9|
0,2,8.9|
1,0,9.2|
1,1,1.8|
1,2,0.43|
2,0,4.7|
2,1,3.9|
2,2,2.4|
];
constraint_x28_x11=[
0,0,3.5|
0,1,9.7|
0,2,6.6|
1,0,5.7|
1,1,5|
1,2,7.9|
2,0,8.3|
2,1,1|
2,2,4.8|
];
constraint_x28_x14=[
0,0,2.3|
0,1,8.4|
0,2,1.4|
1,0,7.4|
1,1,3.5|
1,2,3.4|
2,0,4.8|
2,1,1.8|
2,2,7.4|
];
constraint_x28_x17=[
0,0,0.69|
0,1,8.7|
0,2,3.8|
1,0,1.4|
1,1,2.7|
1,2,7|
2,0,0.61|
2,1,6.6|
2,2,3.5|
];
constraint_x28_x18=[
0,0,0.11|
0,1,1.1|
0,2,9.7|
1,0,2.3|
1,1,2.2|
1,2,9.8|
2,0,2.1|
2,1,2.9|
2,2,0.8|
];
constraint_x28_x19=[
0,0,0.96|
0,1,8.7|
0,2,8|
1,0,3|
1,1,1.9|
1,2,7.8|
2,0,0.14|
2,1,0.65|
2,2,1.2|
];
constraint_x28_x21=[
0,0,5.4|
0,1,7.5|
0,2,9.8|
1,0,3.9|
1,1,8.4|
1,2,1.1|
2,0,7.8|
2,1,1.6|
2,2,7.1|
];
constraint_x28_x22=[
0,0,8.6|
0,1,3.2|
0,2,8.9|
1,0,1.6|
1,1,2.8|
1,2,4.1|
2,0,7.7|
2,1,4.8|
2,2,0.74|
];
constraint_x29_x1=[
0,0,5.1|
0,1,3.2|
0,2,6.6|
1,0,3.8|
1,1,7.2|
1,2,8.8|
2,0,9.4|
2,1,0.2|
2,2,5|
];
constraint_x29_x2=[
0,0,3.3|
0,1,4.9|
0,2,9.1|
1,0,7|
1,1,7.2|
1,2,1.7|
2,0,5.6|
2,1,5.5|
2,2,0.36|
];
constraint_x29_x3=[
0,0,6.6|
0,1,5.3|
0,2,6|
1,0,0.083|
1,1,1.2|
1,2,7.8|
2,0,5.9|
2,1,3.6|
2,2,6.7|
];
constraint_x29_x8=[
0,0,1.2|
0,1,5.9|
0,2,3.9|
1,0,2.4|
1,1,4.4|
1,2,0.25|
2,0,9.3|
2,1,9.9|
2,2,5.2|
];
constraint_x29_x13=[
0,0,6.3|
0,1,4.3|
0,2,7.8|
1,0,4.9|
1,1,1.6|
1,2,0.7|
2,0,4.4|
2,1,6.6|
2,2,6|
];
constraint_x29_x14=[
0,0,3.2|
0,1,7.3|
0,2,8.4|
1,0,5.8|
1,1,1|
1,2,7.5|
2,0,7.6|
2,1,6.3|
2,2,6.4|
];
constraint_x29_x15=[
0,0,1.5|
0,1,10|
0,2,1.2|
1,0,3.1|
1,1,3.6|
1,2,5.5|
2,0,1.1|
2,1,5.5|
2,2,2.6|
];
constraint_x29_x20=[
0,0,0.17|
0,1,2|
0,2,1.3|
1,0,6.1|
1,1,4.1|
1,2,0.38|
2,0,4.2|
2,1,0.7|
2,2,2.1|
];
constraint_x29_x22=[
0,0,2.2|
0,1,5.2|
0,2,2|
1,0,1.7|
1,1,7.7|
1,2,3.7|
2,0,0.91|
2,1,7|
2,2,5.3|
];
constraint_x29_x26=[
0,0,1.9|
0,1,3.6|
0,2,4.4|
1,0,0.66|
1,1,3.5|
1,2,8.4|
2,0,0.56|
2,1,8.7|
2,2,0.31|
];
constraint_x29_x27=[
0,0,4.8|
0,1,2.5|
0,2,1.6|
1,0,9.8|
1,1,2.5|
1,2,5.4|
2,0,8.4|
2,1,5.8|
2,2,1.1|
];
constraint_x29_x28=[
0,0,0.84|
0,1,2.6|
0,2,1.9|
1,0,6.6|
1,1,5.8|
1,2,2.5|
2,0,5.9|
2,1,2.9|
2,2,0.45|
];
constraint_x30_x1=[
0,0,8.1|
0,1,8.7|
0,2,0.87|
1,0,4.4|
1,1,8.8|
1,2,1.3|
2,0,0.83|
2,1,4.8|
2,2,1.7|
];
constraint_x30_x4=[
0,0,3.1|
0,1,8.2|
0,2,6.8|
1,0,5.3|
1,1,6.8|
1,2,6.5|
2,0,1.9|
2,1,7.8|
2,2,8.4|
];
constraint_x30_x5=[
0,0,3.3|
0,1,5.6|
0,2,3.1|
1,0,8.3|
1,1,8.6|
1,2,4.7|
2,0,8.5|
2,1,7.5|
2,2,7.7|
];
constraint_x30_x6=[
0,0,7.4|
0,1,8.8|
0,2,7.5|
1,0,2.5|
1,1,0.84|
1,2,6.9|
2,0,5.4|
2,1,7.9|
2,2,9.9|
];
constraint_x30_x9=[
0,0,2.9|
0,1,0.9|
0,2,8.1|
1,0,2.3|
1,1,1.3|
1,2,2|
2,0,5.1|
2,1,8.9|
2,2,9|
];
constraint_x30_x10=[
0,0,2.1|
0,1,6|
0,2,3.3|
1,0,6.1|
1,1,6.2|
1,2,2|
2,0,6.1|
2,1,8.5|
2,2,1|
];
constraint_x30_x12=[
0,0,3.4|
0,1,6.4|
0,2,1.5|
1,0,0.93|
1,1,0.94|
1,2,6|
2,0,9.2|
2,1,7|
2,2,3.8|
];
constraint_x30_x15=[
0,0,6.4|
0,1,7.3|
0,2,0.39|
1,0,6.2|
1,1,6.3|
1,2,5.8|
2,0,0.9|
2,1,4.5|
2,2,7.9|
];
constraint_x30_x19=[
0,0,6.9|
0,1,2.8|
0,2,3.3|
1,0,5.6|
1,1,7|
1,2,6.9|
2,0,7.2|
2,1,0.52|
2,2,1|
];
constraint_x30_x26=[
0,0,0.45|
0,1,5.5|
0,2,2.8|
1,0,0.63|
1,1,5.6|
1,2,5.7|
2,0,3.6|
2,1,0.89|
2,2,2.2|
];
constraint_x30_x27=[
0,0,0.26|
0,1,5.3|
0,2,6.6|
1,0,4.7|
1,1,8.8|
1,2,0.41|
2,0,1.5|
2,1,5.6|
2,2,0.045|
];
constraint_x30_x28=[
0,0,4.3|
0,1,6.8|
0,2,5.1|
1,0,2.3|
1,1,4.8|
1,2,0.63|
2,0,2.2|
2,1,4.4|
2,2,5.9|
];
constraint_x31_x1=[
0,0,0.77|
0,1,9.8|
0,2,9.6|
1,0,3|
1,1,9.7|
1,2,7|
2,0,3.9|
2,1,5.3|
2,2,6.5|
];
constraint_x31_x2=[
0,0,0.44|
0,1,6.1|
0,2,7.9|
1,0,1.3|
1,1,5.1|
1,2,4.6|
2,0,4|
2,1,1.6|
2,2,0.23|
];
constraint_x31_x3=[
0,0,9|
0,1,3.4|
0,2,3.5|
1,0,3.7|
1,1,1.8|
1,2,4.7|
2,0,9.5|
2,1,3.1|
2,2,7|
];
constraint_x31_x4=[
0,0,5.6|
0,1,9.8|
0,2,7.6|
1,0,3.1|
1,1,1.1|
1,2,5.3|
2,0,4.4|
2,1,1.1|
2,2,3.6|
];
constraint_x31_x5=[
0,0,6.6|
0,1,7.9|
0,2,7.9|
1,0,1.9|
1,1,5.4|
1,2,7.1|
2,0,7.8|
2,1,7.3|
2,2,6.5|
];
constraint_x31_x7=[
0,0,0.85|
0,1,2.1|
0,2,6.7|
1,0,8.4|
1,1,0.62|
1,2,1.8|
2,0,1.9|
2,1,8.7|
2,2,2.4|
];
constraint_x31_x8=[
0,0,0.22|
0,1,1.2|
0,2,6.5|
1,0,3.5|
1,1,0.49|
1,2,5.3|
2,0,5.4|
2,1,2.3|
2,2,8.3|
];
constraint_x31_x9=[
0,0,9.6|
0,1,2|
0,2,3.4|
1,0,4.4|
1,1,4.5|
1,2,8.6|
2,0,3.1|
2,1,4.4|
2,2,9.3|
];
constraint_x31_x14=[
0,0,9.9|
0,1,7.4|
0,2,1.5|
1,0,5|
1,1,3|
1,2,4.7|
2,0,2.4|
2,1,7.6|
2,2,3.3|
];
constraint_x31_x16=[
0,0,0.84|
0,1,0.32|
0,2,4.3|
1,0,0.64|
1,1,3.4|
1,2,4.2|
2,0,3.8|
2,1,7.5|
2,2,0.036|
];
constraint_x31_x21=[
0,0,8.2|
0,1,6.9|
0,2,2|
1,0,6.2|
1,1,2|
1,2,8.2|
2,0,0.7|
2,1,1.4|
2,2,0.17|
];
constraint_x31_x22=[
0,0,3.6|
0,1,1.1|
0,2,1.7|
1,0,7.1|
1,1,5.7|
1,2,4.2|
2,0,9.5|
2,1,0.52|
2,2,0.14|
];
constraint_x31_x25=[
0,0,7.1|
0,1,7.7|
0,2,5.1|
1,0,8.9|
1,1,0.13|
1,2,7|
2,0,2.9|
2,1,1.5|
2,2,4.6|
];
constraint_x31_x27=[
0,0,1.7|
0,1,5.3|
0,2,2.3|
1,0,8.7|
1,1,7|
1,2,4.1|
2,0,4.1|
2,1,3.1|
2,2,6.6|
];
constraint_x31_x28=[
0,0,6.6|
0,1,2.7|
0,2,1.8|
1,0,2.2|
1,1,7.8|
1,2,2.8|
2,0,7.8|
2,1,6.7|
2,2,3|
];
constraint_x32_x1=[
0,0,0.86|
0,1,2.3|
0,2,8.7|
1,0,7.9|
1,1,2.4|
1,2,6.3|
2,0,8|
2,1,5.3|
2,2,1.8|
];
constraint_x32_x2=[
0,0,7|
0,1,4.1|
0,2,3|
1,0,8.9|
1,1,1.2|
1,2,3.1|
2,0,3.5|
2,1,6.9|
2,2,9.6|
];
constraint_x32_x3=[
0,0,4.5|
0,1,6.2|
0,2,8.4|
1,0,9|
1,1,3.3|
1,2,2.3|
2,0,2.6|
2,1,4.9|
2,2,5.4|
];
constraint_x32_x4=[
0,0,2.7|
0,1,6.5|
0,2,0.14|
1,0,8.2|
1,1,7.3|
1,2,6.1|
2,0,2.7|
2,1,3.7|
2,2,0.65|
];
constraint_x32_x6=[
0,0,8.5|
0,1,1.6|
0,2,3.3|
1,0,8.9|
1,1,2.6|
1,2,9.2|
2,0,1.5|
2,1,4.4|
2,2,2.7|
];
constraint_x32_x7=[
0,0,8.7|
0,1,7.6|
0,2,8.2|
1,0,1.9|
1,1,5.6|
1,2,0.56|
2,0,9.5|
2,1,9|
2,2,2.3|
];
constraint_x32_x8=[
0,0,0.83|
0,1,3.2|
0,2,1.5|
1,0,2.6|
1,1,9.6|
1,2,8.1|
2,0,7.4|
2,1,2.5|
2,2,6.9|
];
constraint_x32_x9=[
0,0,1.3|
0,1,2.2|
0,2,7.1|
1,0,3.5|
1,1,2.4|
1,2,5.2|
2,0,5.1|
2,1,4|
2,2,3.8|
];
constraint_x32_x11=[
0,0,8.6|
0,1,3.1|
0,2,3.5|
1,0,4.4|
1,1,8.6|
1,2,3.3|
2,0,0.57|
2,1,5|
2,2,9|
];
constraint_x32_x13=[
0,0,9.4|
0,1,4.5|
0,2,1.5|
1,0,7.9|
1,1,4.9|
1,2,1.1|
2,0,4.8|
2,1,2.2|
2,2,8.4|
];
constraint_x32_x15=[
0,0,9.1|
0,1,1.6|
0,2,0.21|
1,0,3.3|
1,1,3.1|
1,2,8.2|
2,0,6.4|
2,1,9.4|
2,2,8.5|
];
constraint_x32_x16=[
0,0,2.5|
0,1,4.6|
0,2,8.7|
1,0,2.6|
1,1,3|
1,2,4|
2,0,1.7|
2,1,2.6|
2,2,6.9|
];
constraint_x32_x18=[
0,0,0.74|
0,1,9.6|
0,2,1.6|
1,0,5|
1,1,8.7|
1,2,3.1|
2,0,7.2|
2,1,0.81|
2,2,2.9|
];
constraint_x32_x19=[
0,0,6.3|
0,1,6.7|
0,2,9|
1,0,0.41|
1,1,1.1|
1,2,0.23|
2,0,4.4|
2,1,1.7|
2,2,5|
];
constraint_x32_x20=[
0,0,2.9|
0,1,7.2|
0,2,4.4|
1,0,5.5|
1,1,5.3|
1,2,2.6|
2,0,9.4|
2,1,5.2|
2,2,9.2|
];
constraint_x32_x21=[
0,0,4.5|
0,1,9.5|
0,2,9|
1,0,9.9|
1,1,9.5|
1,2,9.8|
2,0,7.8|
2,1,9.2|
2,2,8.4|
];
constraint_x32_x22=[
0,0,2.8|
0,1,8.1|
0,2,8.2|
1,0,1|
1,1,1.1|
1,2,9.4|
2,0,5|
2,1,5.8|
2,2,0.16|
];
constraint_x32_x27=[
0,0,9.1|
0,1,5.2|
0,2,6.9|
1,0,4.4|
1,1,0.94|
1,2,5.6|
2,0,9.6|
2,1,4.7|
2,2,0.15|
];
constraint_x32_x29=[
0,0,0.91|
0,1,2.9|
0,2,1.2|
1,0,5.5|
1,1,3|
1,2,9.9|
2,0,5.7|
2,1,0.83|
2,2,2.6|
];
constraint_x32_x31=[
0,0,2.8|
0,1,1.6|
0,2,3.9|
1,0,3.2|
1,1,9.1|
1,2,1.3|
2,0,0.94|
2,1,8.5|
2,2,3.9|
];
constraint_x33_x2=[
0,0,2.7|
0,1,3.4|
0,2,4.8|
1,0,5.3|
1,1,4.3|
1,2,8.6|
2,0,2|
2,1,0.026|
2,2,1.5|
];
constraint_x33_x3=[
0,0,9.9|
0,1,8.2|
0,2,4.9|
1,0,5.7|
1,1,8|
1,2,0.07|
2,0,1.2|
2,1,1.8|
2,2,3.7|
];
constraint_x33_x4=[
0,0,5|
0,1,4.7|
0,2,5.5|
1,0,3.9|
1,1,7.7|
1,2,1.8|
2,0,7.7|
2,1,8.7|
2,2,4.6|
];
constraint_x33_x5=[
0,0,3.4|
0,1,9.3|
0,2,8.1|
1,0,4.8|
1,1,1|
1,2,3.2|
2,0,5.5|
2,1,0.11|
2,2,7.9|
];
constraint_x33_x6=[
0,0,6.2|
0,1,5.5|
0,2,8.6|
1,0,6|
1,1,3.4|
1,2,5.9|
2,0,3.9|
2,1,4.3|
2,2,8|
];
constraint_x33_x7=[
0,0,9.5|
0,1,0.096|
0,2,8.8|
1,0,7.1|
1,1,4.6|
1,2,3.7|
2,0,4.1|
2,1,3.9|
2,2,0.75|
];
constraint_x33_x10=[
0,0,5.5|
0,1,3.8|
0,2,0.33|
1,0,6.7|
1,1,0.65|
1,2,3.1|
2,0,6.2|
2,1,9.1|
2,2,5.3|
];
constraint_x33_x11=[
0,0,6.1|
0,1,0.7|
0,2,9.8|
1,0,8.6|
1,1,2.7|
1,2,3.8|
2,0,2.6|
2,1,0.16|
2,2,1.4|
];
constraint_x33_x14=[
0,0,4.1|
0,1,3|
0,2,3.1|
1,0,5.2|
1,1,9|
1,2,4.5|
2,0,0.34|
2,1,2.8|
2,2,2|
];
constraint_x33_x16=[
0,0,5.5|
0,1,7|
0,2,2.2|
1,0,9.8|
1,1,1.3|
1,2,6.1|
2,0,3.2|
2,1,0.74|
2,2,5|
];
constraint_x33_x18=[
0,0,3.4|
0,1,1.3|
0,2,6.9|
1,0,5.4|
1,1,7|
1,2,0.21|
2,0,9.7|
2,1,2.5|
2,2,8.2|
];
constraint_x33_x20=[
0,0,2.6|
0,1,3.5|
0,2,4.3|
1,0,1.3|
1,1,7|
1,2,0.3|
2,0,10|
2,1,4.8|
2,2,3.1|
];
constraint_x33_x22=[
0,0,9.9|
0,1,1.1|
0,2,1.8|
1,0,3.1|
1,1,7.6|
1,2,6.4|
2,0,4.6|
2,1,0.61|
2,2,1.5|
];
constraint_x33_x23=[
0,0,4.9|
0,1,1.2|
0,2,1.7|
1,0,2.5|
1,1,8.6|
1,2,4.2|
2,0,5|
2,1,5.7|
2,2,1.4|
];
constraint_x33_x27=[
0,0,4.4|
0,1,6.8|
0,2,1.8|
1,0,6.9|
1,1,8.1|
1,2,7.5|
2,0,6.2|
2,1,3.9|
2,2,9.1|
];
constraint_x33_x31=[
0,0,3.9|
0,1,9.5|
0,2,3.5|
1,0,7.6|
1,1,4.9|
1,2,8.7|
2,0,7.2|
2,1,7.2|
2,2,4.7|
];
constraint_x34_x1=[
0,0,5.6|
0,1,6.5|
0,2,5.1|
1,0,7.6|
1,1,6.9|
1,2,2.5|
2,0,8|
2,1,5.8|
2,2,5.9|
];
constraint_x34_x6=[
0,0,4.8|
0,1,5.4|
0,2,4|
1,0,7.2|
1,1,3.8|
1,2,2.8|
2,0,8.2|
2,1,7.1|
2,2,0.56|
];
constraint_x34_x9=[
0,0,8.5|
0,1,8.5|
0,2,2.7|
1,0,2.4|
1,1,0.66|
1,2,1.7|
2,0,1.9|
2,1,8.1|
2,2,0.066|
];
constraint_x34_x14=[
0,0,8.9|
0,1,5.9|
0,2,3.6|
1,0,6.5|
1,1,5.8|
1,2,5.4|
2,0,3.1|
2,1,6.7|
2,2,7.5|
];
constraint_x34_x18=[
0,0,4.1|
0,1,0.58|
0,2,0.99|
1,0,0.86|
1,1,7.3|
1,2,0.87|
2,0,1.7|
2,1,7.2|
2,2,8.9|
];
constraint_x34_x19=[
0,0,5.5|
0,1,2|
0,2,1.8|
1,0,0.15|
1,1,1.5|
1,2,9.6|
2,0,8.4|
2,1,6.6|
2,2,2.9|
];
constraint_x34_x20=[
0,0,9.2|
0,1,4.6|
0,2,1.1|
1,0,1|
1,1,5.4|
1,2,2.7|
2,0,5.6|
2,1,3.7|
2,2,2.6|
];
constraint_x34_x22=[
0,0,0.93|
0,1,4.2|
0,2,4.3|
1,0,0.21|
1,1,4.4|
1,2,7.6|
2,0,3.6|
2,1,8.4|
2,2,1.7|
];
constraint_x34_x24=[
0,0,0.38|
0,1,7.6|
0,2,0.28|
1,0,2.8|
1,1,9.7|
1,2,6.7|
2,0,9.5|
2,1,6.8|
2,2,8.1|
];
constraint_x34_x27=[
0,0,6.3|
0,1,4.1|
0,2,9.4|
1,0,8.5|
1,1,9.1|
1,2,3.8|
2,0,8.8|
2,1,1.1|
2,2,7.1|
];
constraint_x34_x29=[
0,0,2.8|
0,1,1.5|
0,2,5.5|
1,0,0.46|
1,1,5.1|
1,2,6.5|
2,0,7.7|
2,1,7.8|
2,2,5|
];
constraint_x34_x30=[
0,0,9.8|
0,1,3|
0,2,0.46|
1,0,1.2|
1,1,9.6|
1,2,8.8|
2,0,6.4|
2,1,9.3|
2,2,10|
];
constraint_x34_x33=[
0,0,2.2|
0,1,9.2|
0,2,6.5|
1,0,4.5|
1,1,6.5|
1,2,7.1|
2,0,3.1|
2,1,2.3|
2,2,8.2|
];
constraint_x35_x1=[
0,0,3|
0,1,6.2|
0,2,8.2|
1,0,7.9|
1,1,0.15|
1,2,3.2|
2,0,9.9|
2,1,4.2|
2,2,4.6|
];
constraint_x35_x2=[
0,0,9|
0,1,2.1|
0,2,2|
1,0,9.4|
1,1,3.8|
1,2,3.5|
2,0,0.44|
2,1,7.5|
2,2,9.5|
];
constraint_x35_x5=[
0,0,6.3|
0,1,4|
0,2,3.5|
1,0,7.7|
1,1,8.6|
1,2,0.89|
2,0,0.81|
2,1,8.6|
2,2,7.6|
];
constraint_x35_x7=[
0,0,1.6|
0,1,0.26|
0,2,8.5|
1,0,2.1|
1,1,0.62|
1,2,3|
2,0,4.9|
2,1,9.2|
2,2,7.2|
];
constraint_x35_x9=[
0,0,5.2|
0,1,1.7|
0,2,4.3|
1,0,8.5|
1,1,0.49|
1,2,9.5|
2,0,7.3|
2,1,1.2|
2,2,2.1|
];
constraint_x35_x10=[
0,0,4.4|
0,1,6.6|
0,2,9.3|
1,0,9.9|
1,1,8.9|
1,2,2.7|
2,0,7.5|
2,1,2.8|
2,2,5.4|
];
constraint_x35_x13=[
0,0,7.8|
0,1,7.7|
0,2,1.8|
1,0,5.7|
1,1,7.8|
1,2,5.5|
2,0,1.1|
2,1,7.6|
2,2,5.6|
];
constraint_x35_x14=[
0,0,4.9|
0,1,3.4|
0,2,10|
1,0,8.5|
1,1,9.9|
1,2,1.4|
2,0,5.1|
2,1,0.49|
2,2,4.1|
];
constraint_x35_x15=[
0,0,7|
0,1,3.1|
0,2,6.5|
1,0,2.3|
1,1,1.7|
1,2,2.1|
2,0,1.2|
2,1,8.4|
2,2,5.7|
];
constraint_x35_x17=[
0,0,7.5|
0,1,8|
0,2,9.3|
1,0,1.6|
1,1,3.3|
1,2,1.6|
2,0,4.7|
2,1,4.2|
2,2,1.3|
];
constraint_x35_x18=[
0,0,4.7|
0,1,2.5|
0,2,8.9|
1,0,8.3|
1,1,7.7|
1,2,5.9|
2,0,7.2|
2,1,5.9|
2,2,7.1|
];
constraint_x35_x20=[
0,0,2.6|
0,1,2.1|
0,2,3.5|
1,0,10|
1,1,9.3|
1,2,4.6|
2,0,7.5|
2,1,6.7|
2,2,8|
];
constraint_x35_x21=[
0,0,1.7|
0,1,3.2|
0,2,4.4|
1,0,2.6|
1,1,6|
1,2,2.2|
2,0,8|
2,1,3.1|
2,2,9.5|
];
constraint_x35_x26=[
0,0,2.4|
0,1,1.4|
0,2,8.1|
1,0,6.1|
1,1,10|
1,2,7.7|
2,0,7.4|
2,1,4.5|
2,2,2.8|
];
constraint_x35_x27=[
0,0,2.5|
0,1,8.6|
0,2,6.3|
1,0,9.4|
1,1,1.2|
1,2,8.9|
2,0,8.2|
2,1,1.8|
2,2,2.2|
];
constraint_x35_x28=[
0,0,2.8|
0,1,8.3|
0,2,3.9|
1,0,8.7|
1,1,0.51|
1,2,5.6|
2,0,2.9|
2,1,2.2|
2,2,2.4|
];
constraint_x35_x29=[
0,0,1.9|
0,1,9.2|
0,2,4|
1,0,7.5|
1,1,4.2|
1,2,4.7|
2,0,5.3|
2,1,4.5|
2,2,2.7|
];
constraint_x35_x30=[
0,0,1|
0,1,6.4|
0,2,3.9|
1,0,8.3|
1,1,7.2|
1,2,8.7|
2,0,4.4|
2,1,9.5|
2,2,5|
];
constraint_x35_x31=[
0,0,5.2|
0,1,4.9|
0,2,7.4|
1,0,7.9|
1,1,5.4|
1,2,0.87|
2,0,5.7|
2,1,9.2|
2,2,6.9|
];
constraint_x35_x32=[
0,0,0.071|
0,1,9.1|
0,2,4.8|
1,0,3.9|
1,1,9.4|
1,2,9.6|
2,0,3.2|
2,1,3.4|
2,2,3.1|
];
constraint_x35_x33=[
0,0,6.4|
0,1,9.3|
0,2,0.84|
1,0,7.1|
1,1,9.9|
1,2,5|
2,0,1.3|
2,1,5.7|
2,2,5.1|
];
constraint_x35_x34=[
0,0,1.9|
0,1,4.3|
0,2,0.86|
1,0,8.7|
1,1,8.4|
1,2,2|
2,0,2.1|
2,1,1.8|
2,2,5.5|
];
constraint_x1_y1=[
0,0,6.1|
0,1,5.3|
0,2,1.6|
1,0,1.9|
1,1,0.31|
1,2,4.7|
2,0,8.5|
2,1,5.6|
2,2,7.1|
];
constraint_x2_y2=[
0,0,7|
0,1,8.1|
0,2,5|
1,0,5.8|
1,1,0.59|
1,2,1.7|
2,0,1.6|
2,1,0.97|
2,2,8.4|
];
constraint_x3_y3=[
0,0,8.2|
0,1,3.9|
0,2,6.3|
1,0,7.2|
1,1,0.57|
1,2,4|
2,0,1.2|
2,1,4.3|
2,2,5.3|
];
constraint_x4_y4=[
0,0,0.74|
0,1,4.2|
0,2,3.1|
1,0,1.5|
1,1,1.7|
1,2,2.1|
2,0,5.7|
2,1,5|
2,2,7.1|
];
constraint_x5_y5=[
0,0,8.4|
0,1,7.6|
0,2,8.3|
1,0,1|
1,1,3.8|
1,2,0.21|
2,0,7.8|
2,1,3.3|
2,2,2.6|
];
constraint_x6_y6=[
0,0,7|
0,1,5.1|
0,2,9|
1,0,7.1|
1,1,9.4|
1,2,1.6|
2,0,6.3|
2,1,0.013|
2,2,4.9|
];
constraint_x7_y7=[
0,0,4.8|
0,1,8.3|
0,2,0.6|
1,0,4.9|
1,1,4.1|
1,2,3.9|
2,0,2.9|
2,1,5.7|
2,2,3|
];
initial_distribution_y1=[0.68,0.17,0.15];
initial_distribution_y2=[0.2,0.62,0.17];
initial_distribution_y3=[0.059,0.49,0.45];
initial_distribution_y4=[0.46,0.31,0.23];
initial_distribution_y5=[0.6,0.18,0.23];
initial_distribution_y6=[0.14,0.82,0.047];
initial_distribution_y7=[0.38,0.38,0.24];
transition_y1=[
0.15,0.54,0.3|
0.3,0.33,0.37|
0.32,0.53,0.15|
];
transition_y2=[
0.27,0.28,0.45|
0.34,0.39,0.27|
0.21,0.55,0.23|
];
transition_y3=[
0.4,0.38,0.22|
0.086,0.29,0.62|
0.19,0.65,0.16|
];
transition_y4=[
0.54,0.21,0.25|
0.45,0.21,0.34|
0.64,0.28,0.077|
];
transition_y5=[
0.47,0.43,0.099|
0.72,0.048,0.23|
0.39,0.13,0.48|
];
transition_y6=[
0.46,0.12,0.43|
0.92,0.026,0.058|
0.26,0.46,0.27|
];
transition_y7=[
0.39,0.53,0.082|
0.16,0.4,0.44|
0.13,0.7,0.17|
];
